
Gurobi 6.5.0 (linux64) logging started Tue Apr 19 20:24:15 2016


Gurobi 6.5.0 (linux64) logging started Tue Apr 19 20:27:06 2016


Gurobi 6.5.0 (linux64) logging started Tue Apr 19 22:51:03 2016


Gurobi 6.5.0 (linux64) logging started Tue Apr 19 22:54:04 2016


Gurobi 6.5.0 (linux64) logging started Sat Apr 23 16:23:20 2016


Gurobi 6.5.0 (linux64) logging started Sat Apr 23 17:01:19 2016


Gurobi 6.5.0 (linux64) logging started Sat Apr 23 17:23:33 2016


Gurobi 6.5.0 (linux64) logging started Sat Apr 23 17:41:03 2016


Gurobi 6.5.0 (linux64) logging started Sat Apr 23 17:41:57 2016


Gurobi 6.5.0 (linux64) logging started Sat Apr 23 17:44:33 2016


Gurobi 6.5.0 (linux64) logging started Sat Apr 23 17:44:46 2016


Gurobi 6.5.0 (linux64) logging started Sat Apr 23 17:44:50 2016


Gurobi 6.5.0 (linux64) logging started Sat Apr 23 17:49:02 2016


Gurobi 6.5.0 (linux64) logging started Sat Apr 23 17:51:52 2016


Gurobi 6.5.0 (linux64) logging started Sat Apr 23 18:09:47 2016


Gurobi 6.5.0 (linux64) logging started Sat Apr 23 18:14:20 2016


Gurobi 6.5.0 (linux64) logging started Sat Apr 23 18:23:16 2016


Gurobi 6.5.0 (linux64) logging started Sat Apr 23 18:25:39 2016


Gurobi 6.5.0 (linux64) logging started Sat Apr 23 18:25:52 2016


Gurobi 6.5.0 (linux64) logging started Sat Apr 23 18:29:07 2016


Gurobi 6.5.0 (linux64) logging started Sat Apr 23 18:29:22 2016


Gurobi 6.5.0 (linux64) logging started Sat Apr 23 18:29:33 2016


Gurobi 6.5.0 (linux64) logging started Sat Apr 23 18:29:41 2016


Gurobi 6.5.0 (linux64) logging started Sat Apr 23 18:29:47 2016


Gurobi 6.5.0 (linux64) logging started Sat Apr 23 18:29:53 2016


Gurobi 6.5.0 (linux64) logging started Sat Apr 23 18:29:58 2016


Gurobi 6.5.0 (linux64) logging started Sat Apr 23 18:30:01 2016


Gurobi 6.5.0 (linux64) logging started Sat Apr 23 18:30:04 2016


Gurobi 6.5.0 (linux64) logging started Sat Apr 23 18:30:08 2016


Gurobi 6.5.0 (linux64) logging started Sat Apr 23 18:30:12 2016


Gurobi 6.5.0 (linux64) logging started Sat Apr 23 18:30:15 2016


Gurobi 6.5.0 (linux64) logging started Sat Apr 23 18:30:18 2016


Gurobi 6.5.0 (linux64) logging started Sat Apr 23 18:30:21 2016


Gurobi 6.5.0 (linux64) logging started Sat Apr 23 18:30:25 2016


Gurobi 6.5.0 (linux64) logging started Sat Apr 23 18:30:28 2016


Gurobi 6.5.0 (linux64) logging started Sat Apr 23 18:30:32 2016


Gurobi 6.5.0 (linux64) logging started Sat Apr 23 18:30:52 2016


Gurobi 6.5.0 (linux64) logging started Sat Apr 23 18:34:27 2016


Gurobi 6.5.0 (linux64) logging started Sat Apr 23 18:35:18 2016


Gurobi 6.5.0 (linux64) logging started Sat Apr 23 18:40:57 2016


Gurobi 6.5.0 (linux64) logging started Sat Apr 23 18:42:22 2016


Gurobi 6.5.0 (linux64) logging started Sat Apr 23 18:43:32 2016


Gurobi 6.5.0 (linux64) logging started Sat Apr 23 18:44:00 2016


Gurobi 6.5.0 (linux64) logging started Sat Apr 23 18:44:15 2016


Gurobi 6.5.0 (linux64) logging started Sat Apr 23 19:14:24 2016


Gurobi 6.5.0 (linux64) logging started Sat Apr 23 19:15:41 2016


Gurobi 6.5.0 (linux64) logging started Sat Apr 23 19:18:26 2016


Gurobi 6.5.0 (linux64) logging started Sat Apr 23 19:24:27 2016


Gurobi 6.5.0 (linux64) logging started Sat Apr 23 19:26:12 2016


Gurobi 6.5.0 (linux64) logging started Sat Apr 23 19:27:57 2016


Gurobi 6.5.0 (linux64) logging started Sat Apr 23 19:31:15 2016


Gurobi 6.5.0 (linux64) logging started Sat Apr 23 19:40:37 2016


Gurobi 6.5.0 (linux64) logging started Sat 23 Apr 2016 07:47:10 PM EDT


Gurobi 6.5.0 (linux64) logging started Sat 23 Apr 2016 07:47:41 PM EDT


Gurobi 6.5.0 (linux64) logging started Sat 23 Apr 2016 07:47:51 PM EDT


Gurobi 6.5.0 (linux64) logging started Sat 23 Apr 2016 07:48:04 PM EDT


Gurobi 6.5.0 (linux64) logging started Sat 23 Apr 2016 07:48:46 PM EDT


Gurobi 6.5.0 (linux64) logging started Sat 23 Apr 2016 07:56:24 PM EDT


Gurobi 6.5.0 (linux64) logging started Sat Apr 23 20:00:58 2016


Gurobi 6.5.0 (linux64) logging started Sat 23 Apr 2016 08:05:27 PM EDT


Gurobi 6.5.0 (linux64) logging started Sat Apr 23 20:07:29 2016


Gurobi 6.5.0 (linux64) logging started Sat 23 Apr 2016 08:14:57 PM EDT


Gurobi 6.5.0 (linux64) logging started Sat 23 Apr 2016 08:15:23 PM EDT


Gurobi 6.5.0 (linux64) logging started Sat Apr 23 20:16:03 2016


Gurobi 6.5.0 (linux64) logging started Sat Apr 23 20:16:24 2016


Gurobi 6.5.0 (linux64) logging started Sat Apr 23 20:20:33 2016


Gurobi 6.5.0 (linux64) logging started Sat Apr 23 20:22:23 2016


Gurobi 6.5.0 (linux64) logging started Sat Apr 23 20:28:58 2016


Gurobi 6.5.0 (linux64) logging started Sun Apr 24 02:05:43 2016


Gurobi 6.5.0 (linux64) logging started Sun Apr 24 14:31:25 2016


Gurobi 6.5.0 (linux64) logging started Sun Apr 24 17:14:45 2016


Gurobi 6.5.0 (linux64) logging started Sun Apr 24 17:15:45 2016


Gurobi 6.5.0 (linux64) logging started Sun Apr 24 17:21:35 2016


Gurobi 6.5.0 (linux64) logging started Sun Apr 24 17:35:50 2016


Gurobi 6.5.0 (linux64) logging started Sun Apr 24 17:38:51 2016


Gurobi 6.5.0 (linux64) logging started Sun Apr 24 17:49:54 2016


Gurobi 6.5.0 (linux64) logging started Sun Apr 24 17:50:29 2016

